c This is an instance of the exact track of PACE 2020 Challenge, see https://pacechallenge.org/2020/ 
c TYPE: biology 
c ORIGIN: networkrepository.com 
c DESCRIPTION: ENZYMES is a dataset of protein tertiary structures obtained from (Borgwardt et al., 2005)  consisting of 600 enzymes from the BRENDA enzyme database (Schomburg et al., 2004). Refernces: K. M. Borgwardt, C. S. Ong, S. Schoenauer, S. V. N. Vishwanathan, A. J. Smola, and H. P. Kriegel. Protein function prediction via graph kernels. Bioinformatics, 21(Suppl 1):i47–i56, Jun 2005. I. Schomburg, A. Chang, C. Ebeling, M. Gremse, C. Heldt, G. Huhn, and D. Schomburg. Brenda, the enzyme database: updates and major new developments. Nucleic Acids Research, 32D:431–433, 2019 
p tdp 55 100
1 2
1 4
1 5
2 3
3 28
3 29
3 10
4 6
4 29
4 10
4 25
5 7
5 20
5 8
6 7
6 11
6 8
6 12
7 8
7 9
7 10
8 22
8 9
8 10
9 20
9 11
9 23
9 25
10 20
11 20
11 22
11 23
12 35
13 14
13 17
13 18
13 19
14 15
14 16
15 17
15 16
15 27
16 32
16 27
17 19
17 26
18 19
18 27
20 21
22 23
22 24
22 25
24 54
25 29
26 32
26 33
26 27
27 32
27 34
29 30
30 55
31 32
31 41
32 33
32 34
33 50
34 52
35 36
36 37
36 45
36 46
37 38
37 39
37 40
38 47
39 45
39 48
40 45
40 46
40 49
41 42
41 43
41 44
42 47
42 50
42 51
42 43
42 52
42 53
43 50
43 51
43 44
44 52
44 53
45 54
46 55
47 48
47 49
48 51
49 53
